(set-logic QF_S)
(declare-fun var0 () String)
(assert (str.in.re var0 (re.++ (re.union (re.* (str.to.re "000")) (re.* (str.to.re "11"))) (re.++ (re.* (re.union (str.to.re "22") (str.to.re "333"))) (re.++ (re.* (re.* (str.to.re "4"))) (re.++ (re.+ (re.* (str.to.re "5"))) (re.++ (re.+ (re.union (str.to.re "666") (str.to.re "7"))) (re.++ (re.* (re.+ (str.to.re "88"))) (re.++ (re.union (re.+ (str.to.re "999")) (re.+ (str.to.re "aa"))) (re.++ (re.+ (re.* (str.to.re "bbb"))) (re.++ (re.+ (re.union (str.to.re "cc") (str.to.re "ddd"))) (re.++ (re.+ (re.+ (str.to.re "eee"))) (re.++ (re.+ (re.+ (str.to.re "f"))) (re.++ (re.* (re.union (str.to.re "gg") (str.to.re "hhh"))) (re.++ (re.union (re.union (str.to.re "iii") (str.to.re "j")) (re.union (str.to.re "k") (str.to.re "lll"))) (re.++ (re.* (re.+ (str.to.re "mmm"))) (re.++ (re.union (re.+ (str.to.re "nnn")) (re.+ (str.to.re "ooo"))) (re.++ (re.* (re.* (str.to.re "pp"))) (re.++ (re.* (re.* (str.to.re "qq"))) (re.++ (re.* (re.* (str.to.re "rr"))) (re.++ (re.+ (re.* (str.to.re "ss"))) (re.++ (re.* (re.union (str.to.re "t") (str.to.re "u"))) (re.++ (re.* (re.union (str.to.re "vvv") (str.to.re "ww"))) (re.++ (re.+ (re.union (str.to.re "xxx") (str.to.re "yyy"))) (re.++ (re.+ (re.* (str.to.re "z"))) (re.++ (re.* (re.* (str.to.re "AA"))) (re.++ (re.union (re.union (str.to.re "B") (str.to.re "C")) (re.union (str.to.re "DDD") (str.to.re "EEE"))) (re.++ (re.union (re.* (str.to.re "FF")) (re.* (str.to.re "GGG"))) (re.++ (re.union (re.+ (str.to.re "H")) (re.+ (str.to.re "I"))) (re.++ (re.+ (re.+ (str.to.re "JJJ"))) (re.++ (re.+ (re.+ (str.to.re "K"))) (re.++ (re.+ (re.+ (str.to.re "LLL"))) (re.++ (re.union (re.union (str.to.re "MM") (str.to.re "NN")) (re.union (str.to.re "OOO") (str.to.re "P"))) (re.++ (re.union (re.* (str.to.re "QQQ")) (re.* (str.to.re "R"))) (re.++ (re.union (re.+ (str.to.re "S")) (re.+ (str.to.re "TT"))) (re.++ (re.* (re.* (str.to.re "UU"))) (re.++ (re.* (re.+ (str.to.re "VVV"))) (re.++ (re.+ (re.* (str.to.re "WWW"))) (re.++ (re.* (re.* (str.to.re "X"))) (re.++ (re.* (re.union (str.to.re "YY") (str.to.re "ZZ"))) (re.++ (re.* (re.union (str.to.re "!!!") (str.to.re """"))) (re.++ (re.* (re.* (str.to.re "#"))) (re.++ (re.union (re.+ (str.to.re "$$$")) (re.+ (str.to.re "%%%"))) (re.++ (re.* (re.union (str.to.re "&") (str.to.re "'"))) (re.++ (re.* (re.+ (str.to.re "(("))) (re.++ (re.union (re.* (str.to.re ")))")) (re.* (str.to.re "*"))) (re.++ (re.* (re.* (str.to.re "++"))) (re.++ (re.union (re.union (str.to.re ",,") (str.to.re "-")) (re.union (str.to.re ".") (str.to.re "//"))) (re.++ (re.union (re.+ (str.to.re ":::")) (re.+ (str.to.re ";;"))) (re.++ (re.union (re.* (str.to.re "<<")) (re.* (str.to.re "==="))) (re.++ (re.+ (re.* (str.to.re ">>"))) (re.++ (re.+ (re.union (str.to.re "???") (str.to.re "@@"))) (re.++ (re.+ (re.+ (str.to.re "[["))) (re.++ (re.union (re.+ (str.to.re "\\\\\\")) (re.+ (str.to.re "]]"))) (re.++ (re.union (re.* (str.to.re "^^^")) (re.* (str.to.re "__"))) (re.++ (re.union (re.union (str.to.re "``") (str.to.re "{{")) (re.union (str.to.re "||") (str.to.re "}"))) (re.++ (re.+ (re.+ (str.to.re "~"))) (re.++ (re.+ (re.* (str.to.re "0"))) (re.++ (re.union (re.+ (str.to.re "1")) (re.+ (str.to.re "222"))) (re.++ (re.union (re.union (str.to.re "33") (str.to.re "4")) (re.union (str.to.re "555") (str.to.re "66"))) (re.++ (re.+ (re.+ (str.to.re "7"))) (re.++ (re.+ (re.union (str.to.re "88") (str.to.re "9"))) (re.++ (re.+ (re.* (str.to.re "aaa"))) (re.++ (re.* (re.union (str.to.re "bb") (str.to.re "cc"))) (re.++ (re.+ (re.+ (str.to.re "dd"))) (re.++ (re.+ (re.+ (str.to.re "eee"))) (re.++ (re.+ (re.+ (str.to.re "fff"))) (re.++ (re.* (re.union (str.to.re "gg") (str.to.re "hhh"))) (re.++ (re.union (re.* (str.to.re "iii")) (re.* (str.to.re "jjj"))) (re.++ (re.union (re.union (str.to.re "kk") (str.to.re "ll")) (re.union (str.to.re "mmm") (str.to.re "nn"))) (re.++ (re.+ (re.* (str.to.re "o"))) (re.++ (re.* (re.* (str.to.re "pp"))) (re.++ (re.union (re.* (str.to.re "qqq")) (re.* (str.to.re "r"))) (re.++ (re.* (re.+ (str.to.re "ss"))) (re.++ (re.union (re.union (str.to.re "ttt") (str.to.re "u")) (re.union (str.to.re "vv") (str.to.re "w"))) (re.++ (re.union (re.union (str.to.re "xxx") (str.to.re "yyy")) (re.union (str.to.re "z") (str.to.re "AA"))) (re.++ (re.+ (re.* (str.to.re "B"))) (re.++ (re.+ (re.union (str.to.re "C") (str.to.re "D"))) (re.++ (re.union (re.union (str.to.re "E") (str.to.re "FF")) (re.union (str.to.re "GG") (str.to.re "HH"))) (re.++ (re.union (re.+ (str.to.re "II")) (re.+ (str.to.re "JJ"))) (re.++ (re.+ (re.* (str.to.re "KKK"))) (re.++ (re.union (re.+ (str.to.re "LL")) (re.+ (str.to.re "MMM"))) (re.++ (re.* (re.union (str.to.re "NNN") (str.to.re "OOO"))) (re.++ (re.union (re.union (str.to.re "P") (str.to.re "QQ")) (re.union (str.to.re "RRR") (str.to.re "SSS"))) (re.++ (re.+ (re.union (str.to.re "TT") (str.to.re "UUU"))) (re.++ (re.+ (re.* (str.to.re "VVV"))) (re.++ (re.* (re.+ (str.to.re "WW"))) (re.++ (re.union (re.+ (str.to.re "XXX")) (re.+ (str.to.re "YYY"))) (re.++ (re.union (re.union (str.to.re "Z") (str.to.re "!!")) (re.union (str.to.re """") (str.to.re "##"))) (re.++ (re.+ (re.+ (str.to.re "$$"))) (re.++ (re.* (re.union (str.to.re "%%%") (str.to.re "&&&"))) (re.++ (re.* (re.union (str.to.re "''") (str.to.re "("))) (re.++ (re.union (re.union (str.to.re "))") (str.to.re "*")) (re.union (str.to.re "+++") (str.to.re ","))) (re.++ (re.union (re.union (str.to.re "---") (str.to.re "...")) (re.union (str.to.re "///") (str.to.re "::"))) (re.++ (re.* (re.* (str.to.re ";;"))) (re.++ (re.+ (re.* (str.to.re "<"))) (re.++ (re.union (re.* (str.to.re "==")) (re.* (str.to.re ">"))) (re.++ (re.+ (re.* (str.to.re "?"))) (re.++ (re.union (re.* (str.to.re "@@@")) (re.* (str.to.re "[[["))) (re.++ (re.union (re.+ (str.to.re "\\\\")) (re.+ (str.to.re "]"))) (re.++ (re.union (re.+ (str.to.re "^")) (re.+ (str.to.re "__"))) (re.++ (re.* (re.+ (str.to.re "```"))) (re.++ (re.+ (re.+ (str.to.re "{{"))) (re.++ (re.union (re.+ (str.to.re "|||")) (re.+ (str.to.re "}}"))) (re.++ (re.+ (re.* (str.to.re "~~~"))) (re.++ (re.+ (re.+ (str.to.re "0"))) (re.++ (re.* (re.union (str.to.re "111") (str.to.re "22"))) (re.++ (re.union (re.* (str.to.re "33")) (re.* (str.to.re "444"))) (re.++ (re.+ (re.+ (str.to.re "55"))) (re.++ (re.union (re.+ (str.to.re "66")) (re.+ (str.to.re "77"))) (re.++ (re.+ (re.* (str.to.re "8"))) (re.++ (re.* (re.union (str.to.re "999") (str.to.re "a"))) (re.++ (re.* (re.* (str.to.re "b"))) (re.++ (re.+ (re.+ (str.to.re "ccc"))) (re.++ (re.union (re.union (str.to.re "d") (str.to.re "e")) (re.union (str.to.re "ff") (str.to.re "gg"))) (re.++ (re.union (re.* (str.to.re "hh")) (re.* (str.to.re "iii"))) (re.++ (re.* (re.* (str.to.re "jj"))) (re.++ (re.* (re.* (str.to.re "k"))) (re.++ (re.union (re.* (str.to.re "l")) (re.* (str.to.re "m"))) (re.++ (re.+ (re.+ (str.to.re "nn"))) (re.++ (re.union (re.union (str.to.re "ooo") (str.to.re "ppp")) (re.union (str.to.re "q") (str.to.re "rr"))) (re.++ (re.* (re.* (str.to.re "s"))) (re.++ (re.union (re.union (str.to.re "ttt") (str.to.re "u")) (re.union (str.to.re "vv") (str.to.re "w"))) (re.++ (re.* (re.* (str.to.re "xx"))) (re.++ (re.* (re.+ (str.to.re "yyy"))) (re.++ (re.+ (re.* (str.to.re "z"))) (re.++ (re.* (re.+ (str.to.re "AA"))) (re.++ (re.* (re.union (str.to.re "B") (str.to.re "CC"))) (re.++ (re.union (re.+ (str.to.re "DD")) (re.+ (str.to.re "EE"))) (re.++ (re.union (re.union (str.to.re "FFF") (str.to.re "G")) (re.union (str.to.re "HH") (str.to.re "III"))) (re.++ (re.+ (re.* (str.to.re "JJJ"))) (re.++ (re.+ (re.union (str.to.re "KK") (str.to.re "LL"))) (re.++ (re.* (re.+ (str.to.re "MM"))) (re.++ (re.union (re.union (str.to.re "NN") (str.to.re "O")) (re.union (str.to.re "PP") (str.to.re "Q"))) (re.++ (re.* (re.* (str.to.re "RRR"))) (re.++ (re.* (re.union (str.to.re "S") (str.to.re "T"))) (re.++ (re.* (re.* (str.to.re "U"))) (re.++ (re.union (re.union (str.to.re "VV") (str.to.re "WW")) (re.union (str.to.re "XX") (str.to.re "YYY"))) (re.++ (re.union (re.* (str.to.re "ZZ")) (re.* (str.to.re "!!"))) (re.++ (re.+ (re.+ (str.to.re """"""""))) (re.++ (re.union (re.+ (str.to.re "##")) (re.+ (str.to.re "$$"))) (re.++ (re.+ (re.union (str.to.re "%%%") (str.to.re "&"))) (re.++ (re.union (re.union (str.to.re "''") (str.to.re "(")) (re.union (str.to.re ")") (str.to.re "**"))) (re.++ (re.union (re.union (str.to.re "++") (str.to.re ",,,")) (re.union (str.to.re "--") (str.to.re "..."))) (re.++ (re.+ (re.union (str.to.re "/") (str.to.re ":"))) (re.++ (re.* (re.+ (str.to.re ";;;"))) (re.++ (re.+ (re.+ (str.to.re "<"))) (re.++ (re.* (re.+ (str.to.re "=="))) (re.++ (re.* (re.+ (str.to.re ">>"))) (re.++ (re.union (re.* (str.to.re "???")) (re.* (str.to.re "@@@"))) (re.++ (re.union (re.* (str.to.re "[")) (re.* (str.to.re "\\\\\\"))) (re.++ (re.+ (re.union (str.to.re "]]") (str.to.re "^"))) (re.++ (re.union (re.union (str.to.re "__") (str.to.re "```")) (re.union (str.to.re "{{") (str.to.re "||"))) (re.++ (re.* (re.+ (str.to.re "}"))) (re.++ (re.* (re.* (str.to.re "~~~"))) (re.++ (re.* (re.+ (str.to.re "0"))) (re.++ (re.union (re.+ (str.to.re "11")) (re.+ (str.to.re "222"))) (re.++ (re.+ (re.* (str.to.re "3"))) (re.++ (re.+ (re.union (str.to.re "444") (str.to.re "5"))) (re.++ (re.union (re.+ (str.to.re "66")) (re.+ (str.to.re "77"))) (re.++ (re.+ (re.* (str.to.re "88"))) (re.++ (re.union (re.+ (str.to.re "9")) (re.+ (str.to.re "aaa"))) (re.++ (re.union (re.* (str.to.re "bb")) (re.* (str.to.re "ccc"))) (re.++ (re.* (re.+ (str.to.re "ddd"))) (re.++ (re.+ (re.* (str.to.re "eee"))) (re.++ (re.* (re.union (str.to.re "fff") (str.to.re "gg"))) (re.++ (re.* (re.union (str.to.re "hhh") (str.to.re "iii"))) (re.++ (re.+ (re.+ (str.to.re "j"))) (re.++ (re.union (re.* (str.to.re "kk")) (re.* (str.to.re "ll"))) (re.++ (re.* (re.union (str.to.re "mmm") (str.to.re "nnn"))) (re.+ (re.+ (str.to.re "ooo")))))))))))))))))))))))))))))))))))))))))))))))))))))))))))))))))))))))))))))))))))))))))))))))))))))))))))))))))))))))))))))))))))))))))))))))))))))))))))))))))))))))))))))
(check-sat)